; benchmark generated from python API
(set-info :status unknown)
(declare-fun S_4 () Real)
(declare-fun A_0 () Real)
(declare-fun L_0 () Real)
(declare-fun C () Real)
(declare-fun S_0 () Real)
(declare-fun S_2 () Real)
(declare-fun L0 () Real)
(declare-fun B () Real)
(declare-fun S_1 () Real)
(declare-fun A_1 () Real)
(declare-fun L_1 () Real)
(declare-fun A_2 () Real)
(declare-fun S_3 () Real)
(declare-fun A_4 () Real)
(declare-fun A_3 () Real)
(declare-fun L_4 () Real)
(declare-fun L_3 () Real)
(declare-fun L_2 () Real)
(assert
 (let (($x37 (>= L0 0.0)))
 (let (($x739 (>= C 5.0)))
 (let (($x584 (>= B 5.0)))
 (let ((?x286 (* (- 1.0) C)))
 (let ((?x493 (* (- 1.0) A_3)))
 (let ((?x10975 (+ A_4 ?x493 ?x286)))
 (let (($x10226 (<= ?x10975 0.0)))
 (let (($x1286 (not (= L_3 L_4))))
 (let ((?x468 (* (- 1.0) L_3)))
 (let ((?x528 (* (- 1.0) B)))
 (let ((?x11243 (+ ?x528 ?x468 A_3 ?x286)))
 (let ((?x572 (* (- 1.0) L_0)))
 (let ((?x1752 (+ A_2 ?x572)))
 (let (($x11269 (<= ?x1752 ?x11243)))
 (let (($x3221 (= L_3 L_0)))
 (let (($x2287 (not (= L_0 L_2))))
 (let (($x18806 (or $x2287 $x3221 $x11269 (<= (+ A_1 ?x572 L_3 ?x493 (* 2.0 C)) 0.0))))
 (let ((?x269 (* (- 1.0) L_4)))
 (let ((?x11635 (+ ?x528 ?x269 A_4 ?x286)))
 (let (($x11695 (<= (+ A_3 ?x572) ?x11635)))
 (let ((?x2239 (* (- 3.0) C)))
 (let ((?x11627 (+ ?x528 ?x269 A_4 ?x2239)))
 (let ((?x850 (+ A_1 ?x572)))
 (let (($x11665 (<= ?x850 ?x11627)))
 (let ((?x235 (* (- 2.0) C)))
 (let ((?x11578 (+ ?x528 ?x269 A_4 ?x235)))
 (let (($x11579 (<= ?x1752 ?x11578)))
 (let (($x1265 (<= L_3 L_1)))
 (let (($x1213 (not $x1265)))
 (let (($x815 (not (<= L_1 L_0))))
 (let (($x84 (= L_4 L_3)))
 (let (($x18986 (or $x84 $x815 $x1213 $x11579 $x11665 $x11695 (<= S_0 (+ ?x528 ?x269 A_4 (* (- 4.0) C))))))
 (let (($x19535 (or (= (+ ?x2239 ?x528 A_4 (* (- 1.0) A_1) ?x269 L_0) 0.0) (not $x11665))))
 (let (($x18997 (or $x84 $x815 $x1213 $x11695 (<= (+ A_2 ?x572 L_4 (* (- 1.0) A_4) (* 2.0 C)) 0.0))))
 (let (($x421 (<= (+ A_2 (* (- 1.0) A_1) ?x286) 0.0)))
 (let (($x19306 (or $x421 (not (= (+ A_2 ?x572 (* 2.0 C)) (+ A_4 ?x269 ?x528))))))
 (let (($x18580 (or $x84 (not (<= L_3 L_0)) $x11579 $x11695 (<= (+ A_1 ?x572 L_4 (* (- 1.0) A_4) (* 3.0 C)) 0.0))))
 (let (($x64 (= L_2 L_1)))
 (let (($x3466 (= L_4 L_1)))
 (let (($x2461 (not (= L_1 L_3))))
 (let (($x19497 (or $x815 $x2461 $x3466 (<= (+ A_3 ?x572 L_4 (* (- 1.0) A_4) C) 0.0))))
 (let (($x19370 (or (not $x11579) (= (+ A_4 ?x269 ?x528) (+ A_2 ?x572 (* 2.0 C))))))
 (let ((?x474 (* (- 1.0) L_2)))
 (let ((?x10479 (+ A_3 ?x474 C)))
 (let ((?x808 (+ A_4 ?x269 ?x528)))
 (let (($x11034 (= ?x808 ?x10479)))
 (let (($x1507 (= L_4 L_2)))
 (let (($x11507 (<= A_3 (+ A_2 ?x528 C))))
 (let (($x818 (not (<= L_3 L_2))))
 (let (($x14457 (or $x84 $x818 $x1265 (= (+ A_4 ?x269) (+ A_2 ?x474 (* 2.0 C))) $x11507)))
 (let (($x19679 (or (<= (+ ?x572 A_1 (* (- 1.0) S_2)) 0.0) (<= (+ C S_0 (* (- 1.0) S_2)) 0.0))))
 (let ((?x497 (* (- 1.0) A_2)))
 (let ((?x11306 (+ A_3 ?x497 ?x286)))
 (let (($x11327 (<= ?x11306 0.0)))
 (let (($x1387 (not (= L_2 L_3))))
 (let (($x19673 (or (= (+ ?x235 ?x468 A_3 ?x528 L_0 (* (- 1.0) A_1)) 0.0) (not (<= ?x850 (+ ?x528 ?x468 A_3 ?x235))))))
 (let ((?x11248 (+ ?x528 ?x468 A_3 ?x235)))
 (let (($x11389 (<= ?x850 ?x11248)))
 (let (($x3239 (= L_3 L_1)))
 (let (($x1120 (not (= L_1 L_2))))
 (let (($x11340 (= ?x808 (+ A_3 (* (- 1.0) L_1) C))))
 (let (($x11287 (not (<= A_2 (+ A_1 ?x528 C)))))
 (let (($x18550 (or $x2461 $x3466 $x11287 (= ?x808 (+ A_2 (* (- 1.0) L_1) (* 2.0 C))) $x11340)))
 (let (($x18621 (or (not (<= (+ A_2 ?x474) (+ A_1 (* (- 1.0) L_1) ?x528 C))) $x1507 $x11034 (not $x11327))))
 (let (($x18658 (or $x3239 (= (+ A_3 ?x468 ?x528) (+ A_2 (* (- 1.0) L_1) C)) $x11287)))
 (let (($x54 (= L_1 L_0)))
 (let (($x18730 (or $x54 $x1387 (<= (+ A_3 ?x474 (* (- 1.0) A_1) L_1 ?x235) 0.0))))
 (let (($x18521 (or $x54 $x1286 $x10226 (<= (+ A_4 ?x474 (* (- 1.0) A_1) L_1 ?x2239) 0.0))))
 (let ((?x527 (* 2.0 C)))
 (let ((?x312 (* (- 1.0) L_1)))
 (let ((?x10229 (+ A_1 ?x312 ?x528 ?x527)))
 (let (($x10401 (<= (+ A_3 ?x474) ?x10229)))
 (let (($x18941 (or (not $x10401) $x11034 (not (= (+ A_4 ?x269) (+ A_1 ?x312 (* 3.0 C)))))))
 (let ((?x11084 (+ ?x528 ?x474 A_2 ?x286)))
 (let (($x11173 (<= ?x850 ?x11084)))
 (let (($x2018 (= L_2 L_0)))
 (let (($x1116 (not (= L_0 L_1))))
 (let (($x19591 (or (= (+ ?x286 A_2 ?x474 ?x528 L_0 (* (- 1.0) A_1)) 0.0) (not $x11173))))
 (let ((?x270 (+ A_4 ?x269)))
 (let (($x10691 (= ?x270 (+ A_1 ?x312 (* 3.0 C)))))
 (let ((?x414 (+ A_1 ?x312 ?x528 C)))
 (let ((?x475 (+ A_2 ?x474)))
 (let (($x259 (<= ?x475 ?x414)))
 (let (($x74 (= L_3 L_2)))
 (let (($x36 (>= L_0 L0)))
 (let (($x111 (>= S_1 S_0)))
 (let (($x114 (>= S_2 S_1)))
 (let (($x122 (>= A_1 A_0)))
 (let (($x123 (>= A_2 A_1)))
 (and (<= (+ A_3 ?x468) S_4) (<= ?x475 S_3) (not (<= (+ A_3 ?x468) S_3)) $x123 $x122 $x114 $x111 $x36 (or $x84 (<= S_4 ?x808)) (or $x74 (<= S_3 (+ A_3 ?x468 ?x528))) (>= S_0 (+ ?x528 ?x312 A_1 ?x235)) (<= (+ ?x528 ?x312 A_1 ?x286) (+ A_0 ?x572)) (>= S_1 (+ ?x528 ?x312 A_1 ?x286)) (or $x54 (<= S_2 ?x414)) (>= S_2 (+ A_1 ?x312 ?x528)) (or $x54 $x815) (or $x74 $x84 (= ?x270 (+ A_3 ?x468 C))) (or $x54 $x74 $x259 (= (+ A_3 ?x468) (+ A_1 ?x312 ?x527))) (or $x54 $x421 $x1120) (or $x54 $x64 (= L_2 (+ A_2 (* (- 1.0) A_1) L_1 ?x286))) (or (not $x421) $x64) (or $x54 (<= S_0 (+ ?x528 ?x312 A_1 ?x286))) (or $x84 (not (<= L_4 L_3))) (or $x54 (<= S_1 (+ A_1 ?x312 ?x528))) (or $x64 (<= (+ ?x497 L_2 B S_2) 0.0)) (or $x74 (<= S_4 (+ A_3 ?x468 ?x528 C))) (or $x64 $x74 (= (+ ?x286 ?x497 ?x468 L_2 A_3) 0.0)) (<= S_4 (+ A_4 ?x474)) (<= (+ L_0 S_1 (* (- 1.0) A_1)) 0.0) (or $x74 $x818) (or $x1120 (<= (+ ?x528 ?x312 A_2 ?x235) (+ A_0 ?x572))) (<= (+ ?x528 ?x474 A_2 ?x235) (+ A_0 ?x572)) (or $x74 $x1286 $x10226) (or $x54 (<= S_3 ?x10229)) (or $x54 $x259 $x1387 $x1507 $x10691 $x11034) (or $x54 $x10401 (not (= ?x10479 ?x808))) (or $x64 (<= S_1 ?x11084)) (>= S_0 (+ ?x528 ?x474 A_2 ?x2239)) (or (not (<= 0.0 (+ ?x474 L_0))) $x2018) (>= S_1 (+ ?x528 ?x474 A_2 ?x235)) $x19591 (or $x1116 $x2018 (<= (+ A_1 ?x572 L_2 ?x497 C) 0.0)) (>= S_2 ?x11084) (or $x64 (<= S_0 (+ ?x528 ?x474 A_2 ?x235)) $x11173) (<= S_4 (+ A_4 ?x468)) $x18941 (<= S_2 (+ A_2 ?x312)) (or $x54 (<= S_4 (+ A_1 ?x312 ?x528 (* 3.0 C)))) $x18521 (<= S_4 ?x10479) $x18730 (or $x74 (<= S_2 ?x11243)) (or $x2287 $x3221 (<= (+ A_2 ?x572 L_3 ?x493 C) 0.0)) (<= (+ ?x528 ?x468 A_3 ?x2239) (+ A_0 ?x572)) (or $x421 (not $x11269)) $x18658 $x18621 $x18550 (or $x11327 (not $x11340)) (or $x815 $x1120 $x3239 (<= S_1 ?x11248) $x11269) (or $x815 $x1120 $x3239 (<= S_0 (+ ?x528 ?x468 A_3 ?x2239)) $x11269 $x11389) (>= S_2 ?x11248) (>= S_1 (+ ?x528 ?x468 A_3 ?x2239)) $x19673 (<= (+ ?x286 L_0 (* (- 1.0) A_1) S_2) 0.0) (or $x64 $x1387 $x11327) (or $x64 (<= S_3 (+ A_2 ?x474 ?x528 C))) (<= (+ ?x286 L_0 (* (- 1.0) A_0) S_1) 0.0) (or (not $x11269) (= (+ A_3 ?x468 ?x528) (+ A_2 ?x572 C))) $x19679 $x14457 (or $x1507 $x11034 (not $x11507)) (or $x1265 $x1286 $x10226 (<= (+ A_4 ?x497 ?x235) 0.0)) (or $x84 (<= S_3 ?x11635)) $x19370 (or (= ?x808 (+ A_3 ?x572 C)) (not $x11695)) (or (not $x11695) (<= (+ A_3 (* (- 1.0) A_1) ?x235) 0.0)) (<= (+ ?x528 ?x269 A_4 (* (- 4.0) C)) (+ A_0 ?x572)) $x19497 (or $x84 $x815 $x1213 $x11579 (<= S_1 ?x11627) $x11695) (or $x64 (<= S_4 (+ A_2 ?x474 ?x528 ?x527))) (>= S_2 ?x11627) (or $x84 $x815 $x1213 $x11695 (<= S_2 ?x11578)) $x18580 $x19306 $x18997 $x19535 $x18986 (>= S_0 (+ ?x528 ?x269 A_4 (* (- 5.0) C))) (<= (+ ?x235 S_1 (* (- 1.0) S_0)) 0.0) $x18806 (>= S_1 (+ ?x528 ?x269 A_4 (* (- 4.0) C))) (>= S_0 (+ ?x528 ?x468 A_3 (* (- 4.0) C))) (<= (+ ?x235 L_0 (* (- 1.0) A_0) S_2) 0.0) (<= S_3 (+ A_2 ?x312 C)) (<= (+ ?x235 (* (- 1.0) A_1) L_0 S_3) 0.0) (<= (+ ?x235 (* (- 1.0) S_2) S_3) 0.0) (<= (+ ?x2239 (* (- 1.0) S_0) S_2) 0.0) (<= (+ ?x235 (* (- 1.0) S_1) S_2) 0.0) (or (not (= L_2 L_4)) (<= ?x10975 B)) (<= (+ ?x2239 L_0 (* (- 1.0) A_0) S_3) 0.0) (or $x2461 (<= ?x11306 B)) (or $x1286 $x10226 (<= (+ A_4 ?x497 ?x235) B)) (<= (+ (* (- 4.0) C) (* (- 1.0) S_0) S_3) 0.0) (<= (+ ?x2239 (* (- 1.0) S_1) S_3) 0.0) (<= S_4 (+ A_2 ?x312 ?x527)) (<= (+ L_0 (* (- 1.0) A_1) ?x2239 S_4) 0.0) (<= (+ (* (- 4.0) C) (* (- 1.0) S_1) S_4) 0.0) $x584 $x739 $x37 (<= (+ (* (- 1.0) A_0) L_0 S_0) 0.0) (<= (+ ?x2239 (* (- 1.0) S_2) S_4) 0.0) (<= (+ (* (- 5.0) C) (* (- 1.0) S_0) S_4) 0.0) (<= (+ (* (- 4.0) C) L_0 (* (- 1.0) A_0) S_4) 0.0))))))))))))))))))))))))))))))))))))))))))))))))))))))))))))))))))))))))))))))))))))))))))))
(check-sat)
